p tw 131 142
1 2
2 44
3 14
4 35
5 6
6 7
7 8
8 9
8 23
9 10
10 11
11 12
12 13
13 15
14 25
15 16
16 17
17 18
18 19
18 23
19 20
20 21
21 22
22 7
23 24
24 26
25 36
26 27
26 31
27 28
28 29
29 30
30 35
31 32
32 33
33 34
34 35
35 37
36 38
38 39
38 41
39 40
40 35
41 42
42 43
43 45
44 55
45 46
46 47
47 48
48 49
49 50
50 51
50 56
51 52
52 53
53 54
54 35
55 66
56 57
57 58
58 59
59 60
60 61
61 62
62 63
63 64
64 65
65 67
66 77
67 68
68 69
69 70
69 79
70 71
71 72
72 73
73 74
74 75
75 76
76 78
77 88
78 79
78 84
79 80
80 81
81 82
82 83
83 35
84 85
85 86
86 87
87 89
88 99
89 90
90 91
91 92
92 93
93 94
94 95
95 96
96 97
97 98
98 100
98 105
99 110
100 101
101 102
102 103
103 104
104 105
104 89
105 106
106 107
107 108
107 113
108 109
109 111
110 121
111 112
112 35
113 114
114 115
115 116
116 117
117 118
118 119
119 120
120 122
120 124
121 3
122 123
123 126
124 125
125 126
126 127
127 128
128 129
128 5
129 130
130 131
131 4
